Version identifier: 22.1.0.0 | 2022-03-09 | 1a383f8ce
CPXPARAM_Threads                                 1
CPXPARAM_MIP_Strategy_VariableSelect             3
CPXPARAM_TimeLimit                               599.99997042799998
1 of 1 MIP starts provided solutions.
MIP start 'm1' defined initial solution with objective 3.0000.
Tried aggregator 1 time.
MIP Presolve eliminated 13 rows and 0 columns.
MIP Presolve modified 272 coefficients.
Reduced MIP has 1212 rows, 5000 columns, and 72748 nonzeros.
Reduced MIP has 5000 binaries, 0 generals, 0 SOSs, and 0 indicators.
Presolve time = 0.11 sec. (135.25 ticks)
Probing time = 0.02 sec. (15.04 ticks)
Tried aggregator 1 time.
Detecting symmetries...
MIP Presolve modified 14 coefficients.
Reduced MIP has 1212 rows, 5000 columns, and 73119 nonzeros.
Reduced MIP has 5000 binaries, 0 generals, 0 SOSs, and 0 indicators.
Presolve time = 0.07 sec. (83.65 ticks)
Probing time = 0.02 sec. (15.09 ticks)
Clique table members: 796.
MIP emphasis: balance optimality and feasibility.
MIP search method: dynamic search.
Parallel mode: none, using 1 thread.
Root relaxation solution time = 0.90 sec. (1075.39 ticks)

        Nodes                                         Cuts/
   Node  Left     Objective  IInf  Best Integer    Best Bound    ItCnt     Gap

*     0+    0                            3.0000    20100.0000              --- 
      0     0      200.0000   861        3.0000      200.0000     4039     --- 
      0     0      200.0000   876        3.0000       Cuts: 7     9497     --- 
      0     0      200.0000   846        3.0000      Cuts: 23    15041     --- 
      0     0      200.0000   334        3.0000       Cuts: 9    16565     --- 
*     0+    0                          138.0000      200.0000            44.93%
*     0+    0                          184.0000      200.0000             8.70%
      0     0        cutoff            184.0000      200.0000    16565    8.70%
      0     0      200.0000   826      184.0000      Cuts: 63    21372    8.70%
*     0+    0                          189.0000      200.0000             5.82%
      0     0        cutoff            189.0000      200.0000    21372    5.82%
Detecting symmetries...
      0     2      200.0000   327      189.0000      200.0000    21372    5.82%
Elapsed time = 35.33 sec. (38758.45 ticks, tree = 0.01 MB, solutions = 4)
      1     3      200.0000   804      189.0000      200.0000    28431    5.82%
      2     4      200.0000   383      189.0000      200.0000    33383    5.82%
      3     4      199.9560   850      189.0000      200.0000    44168    5.82%
      4     5      200.0000   374      189.0000      200.0000    44201    5.82%
      5     6      200.0000   420      189.0000      200.0000    47206    5.82%
      6     7      200.0000   372      189.0000      200.0000    47263    5.82%
      7     7      199.0000   802      189.0000      200.0000    66882    5.82%
      8     8      200.0000   859      189.0000      200.0000    67255    5.82%
      9     9      200.0000   804      189.0000      200.0000    67740    5.82%
     12    12      200.0000   684      189.0000      200.0000    68017    5.82%
Elapsed time = 47.65 sec. (52169.62 ticks, tree = 0.09 MB, solutions = 4)
     14    13      200.0000   566      189.0000      200.0000    74496    5.82%
     17    16      200.0000   460      189.0000      200.0000    77585    5.82%
     20    19      200.0000   480      189.0000      200.0000    78773    5.82%
     24    21      200.0000   468      189.0000      200.0000    81428    5.82%
     28    22      200.0000   488      189.0000      200.0000    82489    5.82%
     32    25      200.0000   472      189.0000      200.0000    84770    5.82%
     36    25      200.0000   371      189.0000      200.0000    88315    5.82%
     40    27      200.0000   444      189.0000      200.0000    89249    5.82%
     43    29      200.0000   392      189.0000      200.0000    93563    5.82%
     48    31      200.0000   411      189.0000      200.0000    94668    5.82%
Elapsed time = 58.73 sec. (64492.51 ticks, tree = 0.32 MB, solutions = 4)
     53    34      199.0000   465      189.0000      200.0000    96479    5.82%
     57    36      199.0000   446      189.0000      200.0000   100248    5.82%
     60    38      200.0000   416      189.0000      200.0000   103661    5.82%
     65    43      200.0000   353      189.0000      200.0000   105594    5.82%
     70    46      199.0000   310      189.0000      200.0000   110303    5.82%
     74    48      199.0000   342      189.0000      200.0000   115827    5.82%
     80    49      199.0000   361      189.0000      200.0000   119627    5.82%
     86    51      199.7636   399      189.0000      200.0000   130363    5.82%
     89    53      200.0000   322      189.0000      200.0000   134713    5.82%
     90    53      200.0000   323      189.0000      200.0000   137436    5.82%
Elapsed time = 69.71 sec. (75899.64 ticks, tree = 0.56 MB, solutions = 4)
     93    56      200.0000   349      189.0000      200.0000   144584    5.82%
     96    57      200.0000   304      189.0000      200.0000   149784    5.82%
    102    59      200.0000   265      189.0000      200.0000   151893    5.82%
    107    60      200.0000   283      189.0000      200.0000   156541    5.82%
    112    61      200.0000   273      189.0000      200.0000   158739    5.82%
    117    62      200.0000   292      189.0000      200.0000   161488    5.82%
    122    61    infeasible            189.0000      200.0000   166014    5.82%
    127    62      200.0000   258      189.0000      200.0000   168726    5.82%
    130    62      200.0000   295      189.0000      200.0000   171809    5.82%
    135    62      199.0000   281      189.0000      200.0000   177753    5.82%
Elapsed time = 81.72 sec. (87521.56 ticks, tree = 0.65 MB, solutions = 4)
    138    63      198.6914   282      189.0000      200.0000   182573    5.82%
    145    64      198.0000   264      189.0000      200.0000   184174    5.82%
    153    65      198.0000   301      189.0000      200.0000   185229    5.82%
    160    66      198.0000   244      189.0000      200.0000   186361    5.82%
    165    66      198.0000   275      189.0000      200.0000   190664    5.82%
    173    67      198.0000   298      189.0000      200.0000   192348    5.82%
    179    68      198.0000   292      189.0000      200.0000   196257    5.82%
    184    69      198.0000   262      189.0000      200.0000   196627    5.82%
    192    71      198.0000   292      189.0000      200.0000   198194    5.82%
    199    72      198.0000   295      189.0000      200.0000   201446    5.82%
Elapsed time = 92.59 sec. (97885.68 ticks, tree = 0.76 MB, solutions = 4)
    206    73      198.0000   327      189.0000      200.0000   203392    5.82%
    212    75      198.0000   319      189.0000      200.0000   204978    5.82%
    218    77      198.0000   305      189.0000      200.0000   207304    5.82%
    224    79      198.0000   260      189.0000      200.0000   210406    5.82%
    230    79      198.0000   321      189.0000      200.0000   212598    5.82%
    235    79      198.0000   301      189.0000      200.0000   215602    5.82%
    241    80      196.0000   281      189.0000      200.0000   222102    5.82%
    246    84      197.0000   282      189.0000      200.0000   226698    5.82%
    253    90      196.0000   225      189.0000      200.0000   230364    5.82%
    260    95      196.0000   199      189.0000      200.0000   233272    5.82%
Elapsed time = 103.91 sec. (108330.50 ticks, tree = 1.03 MB, solutions = 4)
    269   100      196.0000   205      189.0000      200.0000   238941    5.82%
    278   104      194.8438   126      189.0000      200.0000   244473    5.82%
    292   115      194.0000   145      189.0000      200.0000   246928    5.82%
    306   118      191.3000   142      189.0000      200.0000   251291    5.82%
    324   127    infeasible            189.0000      200.0000   255299    5.82%
    332   126      200.0000   288      189.0000      200.0000   259059    5.82%
    337   127      200.0000   308      189.0000      200.0000   262693    5.82%
    341   128      199.0000   243      189.0000      200.0000   266190    5.82%
    347   129      199.0000   214      189.0000      200.0000   268855    5.82%
    354   131      199.0000   268      189.0000      200.0000   270702    5.82%
Elapsed time = 115.30 sec. (118783.88 ticks, tree = 1.47 MB, solutions = 4)
    360   131      199.0000   252      189.0000      200.0000   272223    5.82%
    366   132      199.0000   301      189.0000      200.0000   275419    5.82%
    370   133      199.0000   301      189.0000      200.0000   278146    5.82%
    377   137      198.0000   288      189.0000      200.0000   281719    5.82%
    381   139      198.0000   272      189.0000      200.0000   287793    5.82%
    385   140      197.0000   280      189.0000      200.0000   293026    5.82%
    392   141      197.0000   268      189.0000      200.0000   298622    5.82%
    398   140    infeasible            189.0000      200.0000   304911    5.82%
    405   143    infeasible            189.0000      200.0000   310171    5.82%
    411   144    infeasible            189.0000      200.0000   315941    5.82%
Elapsed time = 126.37 sec. (128977.73 ticks, tree = 1.62 MB, solutions = 4)
    420   145      197.0000   241      189.0000      200.0000   322271    5.82%
    428   143      198.8969   333      189.0000      200.0000   331150    5.82%
    433   146      198.0000   262      189.0000      200.0000   335375    5.82%
    436   147      197.5335   287      189.0000      200.0000   342371    5.82%
    444   152      194.0000   181      189.0000      200.0000   346457    5.82%
    455   157      194.0000   178      189.0000      200.0000   350992    5.82%
    468   158      194.0000   141      189.0000      200.0000   356072    5.82%
    480   158      194.0000   140      189.0000      200.0000   362370    5.82%
    494   158      193.0000   130      189.0000      200.0000   368575    5.82%
    505   165      194.0000   144      189.0000      200.0000   370650    5.82%
Elapsed time = 138.57 sec. (140052.84 ticks, tree = 1.86 MB, solutions = 4)
    515   175      194.0000   176      189.0000      200.0000   372744    5.82%
    524   182      194.0000   159      189.0000      200.0000   374572    5.82%
    533   189      194.0000   138      189.0000      200.0000   377014    5.82%
    543   196      194.0000   128      189.0000      200.0000   379292    5.82%
    554   207      194.0000   224      189.0000      200.0000   382266    5.82%
    564   212      194.0000   163      189.0000      200.0000   385783    5.82%
    576   220      194.0000   176      189.0000      200.0000   388510    5.82%
    588   227      198.8799   327      189.0000      200.0000   394406    5.82%
    595   228      198.0000   263      189.0000      200.0000   397184    5.82%
    624   232      198.0000   285      189.0000      200.0000   402359    5.82%
Elapsed time = 152.97 sec. (153435.95 ticks, tree = 2.67 MB, solutions = 4)
    650   237      196.6905   288      189.0000      200.0000   413230    5.82%
    686   245    infeasible            189.0000      200.0000   431675    5.82%
    716   245      200.0000   350      189.0000      200.0000   452528    5.82%
    730   248      200.0000   326      189.0000      200.0000   460684    5.82%
    742   251      198.8226   345      189.0000      200.0000   475438    5.82%
    761   260      195.0000   174      189.0000      200.0000   491608    5.82%
    786   265      200.0000   290      189.0000      200.0000   504007    5.82%
    799   269      198.6888   316      189.0000      200.0000   519196    5.82%
    825   272      198.0000   234      189.0000      200.0000   526161    5.82%
    844   277      196.0000   190      189.0000      200.0000   542603    5.82%
Elapsed time = 195.05 sec. (192980.54 ticks, tree = 3.22 MB, solutions = 4)
    879   287      194.0000   205      189.0000      200.0000   551783    5.82%
    920   303      200.0000   328      189.0000      200.0000   564970    5.82%
    938   311      196.0000   260      189.0000      200.0000   580474    5.82%
    983   341      190.0000    40      189.0000      200.0000   592871    5.82%
   1016   367      194.0000   131      189.0000      200.0000   600576    5.82%
   1023   371      200.0000   292      189.0000      200.0000   604992    5.82%

Performing restart 1

Repeating presolve.
Tried aggregator 1 time.
MIP Presolve eliminated 0 rows and 195 columns.
MIP Presolve modified 14034 coefficients.
Reduced MIP has 1212 rows, 4805 columns, and 48382 nonzeros.
Reduced MIP has 4805 binaries, 0 generals, 0 SOSs, and 0 indicators.
Presolve time = 0.04 sec. (38.34 ticks)
Tried aggregator 1 time.
MIP Presolve eliminated 0 rows and 370 columns.
Reduced MIP has 1212 rows, 4435 columns, and 43037 nonzeros.
Reduced MIP has 4435 binaries, 0 generals, 0 SOSs, and 0 indicators.
Presolve time = 0.03 sec. (21.24 ticks)
Tried aggregator 1 time.
Reduced MIP has 1212 rows, 4435 columns, and 43037 nonzeros.
Reduced MIP has 4435 binaries, 0 generals, 0 SOSs, and 0 indicators.
Presolve time = 0.03 sec. (25.11 ticks)
Represolve time = 0.33 sec. (223.61 ticks)
   1027     0      199.0000   879      189.0000     Cuts: 279   616823    5.29%
   1027     0      199.0000   904      189.0000     Cuts: 280   621244    5.29%
   1027     0      199.0000   582      189.0000       Cuts: 7   625680    5.29%
   1027     0      199.0000   735      189.0000     Cuts: 164   629951    5.29%
   1027     0      199.0000   359      189.0000      Cuts: 18   632918    5.29%
   1027     0      199.0000   876      189.0000     Cuts: 151   637673    5.29%
   1027     0      199.0000   493      189.0000      Cuts: 15   640173    5.29%
   1027     0      199.0000   571      189.0000     Cuts: 192   643005    5.29%
   1027     2      199.0000   196      189.0000      199.0000   643005    5.29%
   1030     5      199.0000   424      189.0000      199.0000   658375    5.29%
   1038    13      199.0000   379      189.0000      199.0000   667850    5.29%
   1043    17      199.0000   340      189.0000      199.0000   691269    5.29%
Elapsed time = 282.42 sec. (276139.45 ticks, tree = 0.16 MB, solutions = 4)
   1050    22      199.0000   237      189.0000      199.0000   713747    5.29%
   1057    28      199.0000   239      189.0000      199.0000   731801    5.29%
   1062    33      199.0000   403      189.0000      199.0000   747376    5.29%
   1069    40      199.0000   271      189.0000      199.0000   759193    5.29%
   1077    47      198.0000   346      189.0000      199.0000   774965    5.29%
   1087    56      199.0000   361      189.0000      199.0000   790439    5.29%
   1095    64      199.0000   380      189.0000      199.0000   806572    5.29%
   1106    74      199.0000   367      189.0000      199.0000   818380    5.29%
   1114    80      199.0000   296      189.0000      199.0000   834692    5.29%
   1125    87      198.0000   218      189.0000      199.0000   854412    5.29%
Elapsed time = 325.39 sec. (317893.68 ticks, tree = 0.71 MB, solutions = 4)
   1127    88      197.0000   287      189.0000      199.0000   859760    5.29%
   1147   101      197.0000   294      189.0000      199.0000   873783    5.29%
   1158   108      190.0000   296      189.0000      199.0000   891209    5.29%
   1168   118      190.0000   301      189.0000      199.0000   910177    5.29%
   1176   126      190.0000   412      189.0000      199.0000   929342    5.29%
   1184   134      190.0000   358      189.0000      199.0000   948591    5.29%
   1192   140      190.0000   353      189.0000      199.0000   963432    5.29%
   1203   150      197.0000   268      189.0000      199.0000   983651    5.29%
   1216   163      197.0000   305      189.0000      199.0000   994836    5.29%
   1235   179      191.0000   162      189.0000      199.0000  1006293    5.29%
Elapsed time = 381.53 sec. (369549.97 ticks, tree = 1.80 MB, solutions = 4)
   1281   181    infeasible            189.0000      199.0000  1022382    5.29%
   1315   188    infeasible            189.0000      199.0000  1038923    5.29%
   1346   199      191.0000   222      189.0000      199.0000  1055885    5.29%
   1366   209      197.0000   298      189.0000      199.0000  1076970    5.29%
   1382   224      190.0000   216      189.0000      199.0000  1089512    5.29%
*  1402   177      integral     0      190.0000      199.0000  1092151    4.74%
   1405   178      198.2424   390      190.0000      199.0000  1100675    4.74%
   1416   188      196.9615   380      190.0000      199.0000  1111848    4.74%
   1429   197      199.0000   362      190.0000      199.0000  1122586    4.74%
   1443   209      197.0000   283      190.0000      199.0000  1133473    4.74%
   1456   218      197.0000   227      190.0000      199.0000  1149684    4.74%
Elapsed time = 425.91 sec. (409733.40 ticks, tree = 1.50 MB, solutions = 5)
   1474   227      195.0000   279      190.0000      199.0000  1168085    4.74%
   1495   232        cutoff            190.0000      199.0000  1191663    4.74%
   1513   237      199.0000   230      190.0000      199.0000  1209368    4.74%
   1518   241      199.0000   286      190.0000      199.0000  1222738    4.74%
   1525   248      199.0000   279      190.0000      199.0000  1237043    4.74%
   1533   255      199.0000   395      190.0000      199.0000  1253050    4.74%
   1540   262      199.0000   388      190.0000      199.0000  1266048    4.74%
   1548   270      199.0000   395      190.0000      199.0000  1281149    4.74%
   1555   276      199.0000   437      190.0000      199.0000  1297729    4.74%
   1565   285      198.7143   328      190.0000      199.0000  1310404    4.74%
Elapsed time = 469.02 sec. (450381.23 ticks, tree = 1.81 MB, solutions = 5)
   1576   295      199.0000   388      190.0000      199.0000  1324091    4.74%
   1582   300      199.0000   391      190.0000      199.0000  1340114    4.74%
   1591   308      199.0000   324      190.0000      199.0000  1356302    4.74%
   1600   315      198.3559   411      190.0000      199.0000  1373717    4.74%
   1616   323      199.0000   257      190.0000      199.0000  1387649    4.74%
   1626   331      197.0000   413      190.0000      199.0000  1399205    4.74%
   1632   336      196.0000   323      190.0000      199.0000  1412707    4.74%
   1648   345      199.0000   272      190.0000      199.0000  1426418    4.74%
   1655   351      198.0000   383      190.0000      199.0000  1441570    4.74%
   1667   357      197.8077   404      190.0000      199.0000  1461495    4.74%
Elapsed time = 513.47 sec. (492541.93 ticks, tree = 2.33 MB, solutions = 5)
   1682   363      196.0000   297      190.0000      199.0000  1476863    4.74%
   1701   372      194.0000   159      190.0000      199.0000  1494400    4.74%
   1715   382      199.0000   290      190.0000      199.0000  1506650    4.74%
   1724   388      197.0000   503      190.0000      199.0000  1521295    4.74%
   1739   388    infeasible            190.0000      199.0000  1538945    4.74%
   1758   389        cutoff            190.0000      199.0000  1555329    4.74%
   1774   395      196.0000   265      190.0000      199.0000  1571836    4.74%
   1792   403      196.0000   194      190.0000      199.0000  1588305    4.74%
   1810   408    infeasible            190.0000      199.0000  1605611    4.74%
Starting limited solution polishing.
   1827   416      199.0000   275      190.0000      199.0000  1621105    4.74%
Elapsed time = 560.36 sec. (535484.29 ticks, tree = 2.79 MB, solutions = 5)
   1834   423      199.0000   256      190.0000      199.0000  1637991    4.74%
   1841   430      199.0000   329      190.0000      199.0000  1653724    4.74%
   1847   436      199.0000   344      190.0000      199.0000  1669358    4.74%
   1853   438      199.0000   325      190.0000      199.0000  1690086    4.74%
   1862   444      198.4675   401      190.0000      199.0000  1715626    4.74%
   1870   448      199.0000   301      190.0000      199.0000  1735153    4.74%
   1880   458      199.0000   271      190.0000      199.0000  1752061    4.74%
   1890   465      198.7143   396      190.0000      199.0000  1774267    4.74%
   1898   469      198.8966   328      190.0000      199.0000  1796521    4.74%

Clique cuts applied:  63
Mixed integer rounding cuts applied:  5
Zero-half cuts applied:  95
Gomory fractional cuts applied:  7

Root node processing (before b&c):
  Real time             =   35.27 sec. (38699.31 ticks)
Sequential b&c:
  Real time             =  564.73 sec. (534305.03 ticks)
                          ------------
Total (root+branch&cut) =  600.00 sec. (573004.34 ticks)
Primal:	190
Dual:	199
Status:	Feasible
Time:	600.03
Sequence:
	20
	9
	14
	12
	14
	6
	14
	9
	10
	15
	6
	17
	5
	17
	8
	16
	6
	15
	10
	14
	7
	16
	6
	19
	4
	18
	6
	16
	8
	17
	4
	18
	6
	15
	10
	17
	0
	22
	8
	14
	6
	20
	1
	17
	10
	14
	8
	19
	3
	17
	6
	16
	8
	19
	3
	17
	6
	16
	8
	14
	12
	17
	0
	20
	8
	14
	6
	18
	4
	17
	8
	16
	7
	15
	6
	19
	2
	18
	8
	16
	8
	17
	2
	9
	17
	2
	17
	8
	16
	9
	14
	6
	4
	6
	17
	5
	14
	8
	6
	14
	8
	20
	0
	17
	8
	14
	12
	14
	6
	17
	5
	17
	8
	14
	10
	6
	14
	13
	15
	6
	14
	6
	17
	4
	17
	7
	14
	10
	15
	6
	19
	3
	17
	8
	16
	8
	18
	2
	17
	6
	16
	7
	19
	4
	6
	14
	6
	17
	5
	19
	6
	16
	6
	15
	11
	15
	6
	6
	16
	7
	14
	10
	6
	15
	12
	14
	7
	14
	10
	14
	6
	22
	1
	17
	10
	14
	6
	14
	8
	14
	11
	14
	8
	10
	14
	9
	10
	14
	8
	20
